60
1 0 4
2 0 5
3 0 2
3 2 1
4 0 7
4 2 2
5 0 4
5 1 4
5 2 3
5 3 2
5 4 1
6 3 1
6 5 1
7 1 3
7 4 2
7 5 1
7 6 6
8 0 1
8 1 6
8 4 3
8 6 4
9 0 2
9 1 9
9 2 6
9 4 7
9 6 2
9 7 9
10 3 8
10 7 8
10 9 6
11 0 4
11 2 2
11 5 6
11 9 8
11 10 4
12 3 7
12 4 1
12 5 9
12 6 7
12 8 4
12 10 2
13 0 6
13 2 5
13 5 8
13 8 4
13 9 8
14 0 4
14 2 1
14 3 3
14 4 9
14 5 1
14 6 1
14 9 4
14 11 2
14 13 7
15 0 3
15 1 6
15 2 3
15 3 7
15 4 5
15 6 8
15 7 8
15 8 2
15 9 5
15 11 6
15 13 8
16 4 4
16 5 2
16 6 5
16 8 1
16 13 7
16 14 9
17 0 4
17 6 7
17 8 2
17 10 6
17 11 4
17 12 5
17 13 1
18 0 2
18 1 6
18 2 6
18 3 7
18 10 6
18 12 9
18 16 8
18 17 8
19 2 7
19 5 7
19 6 5
19 7 5
19 10 7
19 11 7
19 12 9
19 14 1
19 16 4
19 17 2
19 18 8
20 1 7
20 2 3
20 4 7
20 5 9
20 7 7
20 12 8
20 14 3
20 15 6
20 16 8
20 17 3
20 18 1
20 19 1
21 2 5
21 6 1
21 7 3
21 12 2
21 14 1
21 15 2
21 16 8
21 17 1
21 20 4
22 1 2
22 2 3
22 3 3
22 4 7
22 5 6
22 10 3
22 11 2
22 12 4
22 13 3
22 14 2
22 15 8
22 16 8
22 18 8
23 0 9
23 1 8
23 2 1
23 3 8
23 7 2
23 8 7
23 14 8
23 16 3
23 19 8
24 0 2
24 1 6
24 3 9
24 5 3
24 6 4
24 8 2
24 10 1
24 13 5
24 14 5
24 17 2
24 19 1
24 22 9
24 23 1
25 1 8
25 2 1
25 4 9
25 7 3
25 11 7
25 12 7
25 15 9
25 16 7
25 17 7
25 18 2
25 22 9
26 3 6
26 4 5
26 5 6
26 8 2
26 10 1
26 13 2
26 14 9
26 22 1
26 23 9
26 24 4
26 25 9
27 0 1
27 2 1
27 4 1
27 5 7
27 7 8
27 8 2
27 10 8
27 11 9
27 12 9
27 14 7
27 15 2
27 16 4
27 17 1
27 19 2
27 20 3
27 23 8
27 26 4
28 0 8
28 3 4
28 5 9
28 6 1
28 7 7
28 8 4
28 11 4
28 12 5
28 13 3
28 15 1
28 16 6
28 19 7
28 21 6
28 26 8
28 27 3
29 0 1
29 2 9
29 3 4
29 7 7
29 9 6
29 10 1
29 14 3
29 18 2
29 19 6
29 20 2
29 21 3
29 23 4
29 25 2
29 28 7
30 1 8
30 3 5
30 6 5
30 7 1
30 8 6
30 9 2
30 10 8
30 11 2
30 14 2
30 19 8
30 20 2
30 21 5
30 26 2
30 28 5
31 0 1
31 2 7
31 4 1
31 7 6
31 10 1
31 12 1
31 14 8
31 18 8
31 19 1
31 20 6
31 24 2
31 25 7
31 28 5
31 30 1
32 2 5
32 5 4
32 7 1
32 8 3
32 10 3
32 13 7
32 15 5
32 21 1
32 22 2
32 24 9
32 25 1
32 28 1
32 29 2
32 31 9
33 1 8
33 4 3
33 6 1
33 7 4
33 8 6
33 9 4
33 12 8
33 15 3
33 17 5
33 21 3
33 22 6
33 26 8
33 28 1
33 29 4
33 32 9
34 0 2
34 7 5
34 10 1
34 11 7
34 12 3
34 13 6
34 15 4
34 17 2
34 19 5
34 21 3
34 23 1
34 24 5
34 26 6
34 27 5
34 28 6
34 29 9
35 0 8
35 1 5
35 2 4
35 4 5
35 5 7
35 7 9
35 11 6
35 14 6
35 17 3
35 18 6
35 20 1
35 21 3
35 23 7
35 24 7
35 27 9
35 28 6
35 29 8
35 30 5
35 31 4
35 33 2
35 34 1
36 1 7
36 2 6
36 5 7
36 6 1
36 7 5
36 8 4
36 10 9
36 11 9
36 13 4
36 17 1
36 18 1
36 19 5
36 21 1
36 23 1
36 24 3
36 25 8
36 26 7
36 28 9
36 33 3
36 34 9
37 0 6
37 3 2
37 5 2
37 6 2
37 8 3
37 9 4
37 11 9
37 13 5
37 14 6
37 15 8
37 16 9
37 17 5
37 20 4
37 23 9
37 26 7
37 27 4
37 28 4
37 29 8
37 31 8
37 33 1
38 1 7
38 7 4
38 8 6
38 11 2
38 13 9
38 15 4
38 16 3
38 24 4
38 25 8
38 26 9
38 28 4
38 29 7
38 31 9
38 32 7
38 33 7
38 35 2
38 37 5
39 0 6
39 2 6
39 3 2
39 5 1
39 12 9
39 14 8
39 18 5
39 20 8
39 21 7
39 23 2
39 26 7
39 27 6
39 30 5
39 32 1
39 33 4
39 34 4
39 35 8
39 37 1
40 3 4
40 4 9
40 6 6
40 10 1
40 11 2
40 12 9
40 13 1
40 18 4
40 19 9
40 26 2
40 27 5
40 30 6
40 32 3
40 33 9
40 35 6
40 36 1
41 1 1
41 2 7
41 10 4
41 12 2
41 13 8
41 17 7
41 19 8
41 21 9
41 22 5
41 24 6
41 27 4
41 29 6
41 32 8
41 33 6
41 35 8
41 40 2
42 0 4
42 1 9
42 3 2
42 5 5
42 6 8
42 9 4
42 10 4
42 16 7
42 17 8
42 19 4
42 21 1
42 24 7
42 28 4
42 30 8
42 32 5
42 33 3
42 34 3
42 35 8
42 36 1
42 39 1
43 0 2
43 3 8
43 4 8
43 5 5
43 6 5
43 9 7
43 12 6
43 14 1
43 16 6
43 17 5
43 19 8
43 20 7
43 21 6
43 26 1
43 27 5
43 29 5
43 30 7
43 33 1
43 34 8
43 35 3
43 40 5
43 42 1
44 2 9
44 3 8
44 7 1
44 8 3
44 11 6
44 12 8
44 14 9
44 16 6
44 17 5
44 18 1
44 19 9
44 20 5
44 21 8
44 22 6
44 26 4
44 31 3
44 32 3
44 34 4
44 39 7
44 40 8
44 42 6
44 43 7
45 1 8
45 2 8
45 3 2
45 8 3
45 9 7
45 10 6
45 11 8
45 12 5
45 13 1
45 14 9
45 19 9
45 20 8
45 21 9
45 23 6
45 24 3
45 26 3
45 30 8
45 33 1
45 35 5
45 40 5
45 43 7
45 44 2
46 2 7
46 3 9
46 5 6
46 7 4
46 8 4
46 10 4
46 13 1
46 15 3
46 17 5
46 19 7
46 21 7
46 23 4
46 24 5
46 27 4
46 31 7
46 32 2
46 34 8
46 35 2
46 38 2
46 40 3
46 43 5
46 44 5
47 1 4
47 3 2
47 7 8
47 8 9
47 9 1
47 13 4
47 14 3
47 16 4
47 18 6
47 21 8
47 22 6
47 24 6
47 28 8
47 29 1
47 30 9
47 31 8
47 32 6
47 33 8
47 38 3
47 39 3
47 41 3
47 42 5
47 44 4
47 45 6
48 1 9
48 5 4
48 12 7
48 13 1
48 15 6
48 16 7
48 25 7
48 28 3
48 29 2
48 30 3
48 31 1
48 35 9
48 36 6
48 38 8
48 43 7
48 46 5
48 47 2
49 0 1
49 1 1
49 3 2
49 4 3
49 5 3
49 7 7
49 9 9
49 11 1
49 12 1
49 13 3
49 14 3
49 16 1
49 18 7
49 19 7
49 20 1
49 21 4
49 24 5
49 25 2
49 27 8
49 28 8
49 29 9
49 30 1
49 32 2
49 34 1
49 37 3
49 38 5
49 40 4
49 43 8
49 45 4
49 48 9
50 0 2
50 3 3
50 4 1
50 6 4
50 8 2
50 10 8
50 11 1
50 12 9
50 13 9
50 15 6
50 16 4
50 20 3
50 24 6
50 25 1
50 26 2
50 29 3
50 32 9
50 33 2
50 35 9
50 38 2
50 39 5
50 44 5
50 45 9
50 48 2
51 2 1
51 3 6
51 4 1
51 10 3
51 11 4
51 12 9
51 15 8
51 17 7
51 23 1
51 24 1
51 25 3
51 26 8
51 32 9
51 33 1
51 34 7
51 37 5
51 39 1
51 44 8
51 45 4
51 47 6
51 48 2
51 49 6
52 0 6
52 2 2
52 6 8
52 8 8
52 9 4
52 10 5
52 11 9
52 12 3
52 15 8
52 18 5
52 19 2
52 23 2
52 24 9
52 25 4
52 26 9
52 30 7
52 35 2
52 45 2
52 46 4
52 47 5
52 51 3
53 1 4
53 3 4
53 5 4
53 6 6
53 11 4
53 13 1
53 15 6
53 16 8
53 17 2
53 18 5
53 19 1
53 23 5
53 25 5
53 28 6
53 30 2
53 31 3
53 33 2
53 34 8
53 35 9
53 37 8
53 39 1
53 42 3
53 43 8
53 45 9
53 46 5
53 47 1
53 48 9
53 50 5
53 51 2
53 52 1
54 3 9
54 7 1
54 9 6
54 11 4
54 14 1
54 16 3
54 19 2
54 20 7
54 21 8
54 23 3
54 24 2
54 25 1
54 26 5
54 27 6
54 28 4
54 30 1
54 31 5
54 32 8
54 34 9
54 35 8
54 40 8
54 42 3
54 43 7
54 44 8
54 50 1
54 52 5
55 2 7
55 3 9
55 4 7
55 5 6
55 6 8
55 8 3
55 9 3
55 10 5
55 14 7
55 15 5
55 19 9
55 20 3
55 23 2
55 26 5
55 27 9
55 28 1
55 31 8
55 33 9
55 35 7
55 36 4
55 41 1
55 42 9
55 43 1
55 45 7
55 48 3
55 49 9
55 51 9
55 52 8
55 53 3
56 4 5
56 6 5
56 8 7
56 11 3
56 15 2
56 19 4
56 22 5
56 23 1
56 24 2
56 26 2
56 30 6
56 31 3
56 32 4
56 33 6
56 35 9
56 37 9
56 38 5
56 39 5
56 40 5
56 42 7
56 43 7
56 45 3
56 46 1
56 47 2
56 48 1
56 49 6
56 51 3
56 54 1
57 1 1
57 2 5
57 4 4
57 6 7
57 8 5
57 9 3
57 10 7
57 19 2
57 20 4
57 22 9
57 23 7
57 24 6
57 25 5
57 27 6
57 29 6
57 32 1
57 35 8
57 37 4
57 39 3
57 41 3
57 45 6
57 47 6
57 52 1
57 53 7
57 54 1
58 0 9
58 6 8
58 8 3
58 10 5
58 17 7
58 18 4
58 19 1
58 20 7
58 21 8
58 22 3
58 25 4
58 30 6
58 32 4
58 33 9
58 34 6
58 35 7
58 37 4
58 38 4
58 41 3
58 46 2
58 48 1
58 50 6
58 51 9
58 54 7
58 55 9
58 57 7
59 0 1
59 1 9
59 4 6
59 6 2
59 7 2
59 9 4
59 13 4
59 15 9
59 16 9
59 17 6
59 18 5
59 21 5
59 22 6
59 26 1
59 27 3
59 28 4
59 30 7
59 32 4
59 33 3
59 34 3
59 35 9
59 37 2
59 39 3
59 40 1
59 43 1
59 46 8
59 47 7
59 48 8
59 54 6
59 55 4
59 57 2
59 58 5
